Warning for adding constraints: zero or small (< 1e-13) coefficients, ignored
Warning for adding constraints: zero or small (< 1e-13) coefficients, ignored
Warning for adding constraints: zero or small (< 1e-13) coefficients, ignored
Warning for adding constraints: zero or small (< 1e-13) coefficients, ignored
Warning for adding constraints: zero or small (< 1e-13) coefficients, ignored
Warning for adding constraints: zero or small (< 1e-13) coefficients, ignored
Warning for adding constraints: zero or small (< 1e-13) coefficients, ignored
Warning for adding constraints: zero or small (< 1e-13) coefficients, ignored
Warning for adding constraints: zero or small (< 1e-13) coefficients, ignored
Warning for adding constraints: zero or small (< 1e-13) coefficients, ignored
Warning for adding constraints: zero or small (< 1e-13) coefficients, ignored
Warning for adding constraints: zero or small (< 1e-13) coefficients, ignored
Warning for adding constraints: zero or small (< 1e-13) coefficients, ignored
Warning for adding constraints: zero or small (< 1e-13) coefficients, ignored
Warning for adding constraints: zero or small (< 1e-13) coefficients, ignored
Warning for adding constraints: zero or small (< 1e-13) coefficients, ignored
Warning for adding constraints: zero or small (< 1e-13) coefficients, ignored
Warning for adding constraints: zero or small (< 1e-13) coefficients, ignored
Warning for adding constraints: zero or small (< 1e-13) coefficients, ignored
Warning for adding constraints: zero or small (< 1e-13) coefficients, ignored
Warning for adding constraints: zero or small (< 1e-13) coefficients, ignored
Warning for adding constraints: zero or small (< 1e-13) coefficients, ignored
Warning for adding constraints: zero or small (< 1e-13) coefficients, ignored
Warning for adding constraints: zero or small (< 1e-13) coefficients, ignored
Warning for adding constraints: zero or small (< 1e-13) coefficients, ignored
Warning for adding constraints: zero or small (< 1e-13) coefficients, ignored
Warning for adding constraints: zero or small (< 1e-13) coefficients, ignored
Warning for adding constraints: zero or small (< 1e-13) coefficients, ignored
Warning for adding constraints: zero or small (< 1e-13) coefficients, ignored
Warning for adding constraints: zero or small (< 1e-13) coefficients, ignored
Warning for adding constraints: zero or small (< 1e-13) coefficients, ignored
Warning for adding constraints: zero or small (< 1e-13) coefficients, ignored
Warning for adding constraints: zero or small (< 1e-13) coefficients, ignored
Warning for adding constraints: zero or small (< 1e-13) coefficients, ignored
Warning for adding constraints: zero or small (< 1e-13) coefficients, ignored
Warning for adding constraints: zero or small (< 1e-13) coefficients, ignored
Warning for adding constraints: zero or small (< 1e-13) coefficients, ignored

Gurobi 7.5.1 (linux64, Python) logging started Fri Apr 20 16:44:56 2018

Academic license - for non-commercial use only

Gurobi 7.5.1 (linux64, Python) logging started Fri Apr 20 16:49:39 2018

Academic license - for non-commercial use only

Gurobi 7.5.1 (linux64, Python) logging started Fri Apr 20 17:01:44 2018

Academic license - for non-commercial use only

Gurobi 7.5.1 (linux64, Python) logging started Fri Apr 20 17:14:48 2018

Academic license - for non-commercial use only

Gurobi 7.5.1 (linux64, Python) logging started Thu May  3 10:34:27 2018

Academic license - for non-commercial use only

Gurobi 7.5.1 (linux64, Python) logging started Thu May  3 10:51:14 2018

Academic license - for non-commercial use only

Gurobi 7.5.1 (linux64, Python) logging started Thu May  3 11:19:23 2018

Academic license - for non-commercial use only

Gurobi 7.5.1 (linux64, Python) logging started Thu May  3 11:40:45 2018

Academic license - for non-commercial use only

Gurobi 7.5.1 (linux64, Python) logging started Mon May  7 08:43:37 2018

Academic license - for non-commercial use only

Gurobi 7.5.2 (mac64, Python) logging started Sun May 20 19:16:27 2018


Gurobi 7.5.2 (mac64, Python) logging started Sun May 20 19:20:49 2018


Gurobi 7.5.2 (mac64, Python) logging started Sun May 20 19:21:25 2018


Gurobi 7.5.2 (mac64, Python) logging started Sun May 20 19:22:29 2018


Gurobi 7.5.2 (mac64, Python) logging started Sun May 20 21:25:41 2018


Gurobi 7.5.2 (mac64, Python) logging started Sun May 20 21:33:35 2018


Gurobi 7.5.2 (mac64, Python) logging started Sun May 20 21:35:23 2018


Gurobi 7.5.2 (mac64, Python) logging started Sun May 20 23:33:56 2018


Gurobi 7.5.2 (mac64, Python) logging started Sun May 20 23:36:03 2018


Gurobi 7.5.2 (mac64, Python) logging started Sun May 20 23:36:52 2018


Gurobi 7.5.2 (mac64, Python) logging started Sun May 20 23:39:03 2018


Gurobi 7.5.2 (mac64, Python) logging started Sun May 20 23:39:34 2018


Gurobi 7.5.2 (mac64, Python) logging started Sun May 20 23:43:16 2018


Gurobi 7.5.2 (mac64, Python) logging started Sun May 20 23:44:21 2018


Gurobi 7.5.2 (mac64, Python) logging started Sun May 20 23:44:56 2018


Gurobi 7.5.2 (mac64, Python) logging started Sun May 20 23:46:01 2018


Gurobi 7.5.2 (mac64, Python) logging started Sun May 20 23:46:13 2018


Gurobi 7.5.2 (mac64, Python) logging started Sun May 20 23:46:20 2018


Gurobi 7.5.2 (mac64, Python) logging started Sun May 20 23:46:59 2018


Gurobi 7.5.2 (mac64, Python) logging started Sun May 20 23:49:24 2018


Gurobi 7.5.2 (mac64, Python) logging started Sun May 20 23:50:20 2018


Gurobi 7.5.2 (mac64, Python) logging started Sun May 20 23:51:12 2018


Gurobi 7.5.2 (mac64, Python) logging started Sun May 20 23:52:33 2018


Gurobi 7.5.2 (mac64, Python) logging started Sun May 20 23:53:03 2018


Gurobi 7.5.2 (mac64, Python) logging started Sun May 20 23:54:03 2018


Gurobi 7.5.2 (mac64, Python) logging started Sun May 20 23:55:36 2018


Gurobi 7.5.2 (mac64, Python) logging started Sun May 20 23:57:04 2018


Gurobi 7.5.2 (mac64, Python) logging started Sun May 20 23:57:51 2018


Gurobi 7.5.2 (mac64, Python) logging started Sun May 20 23:58:40 2018


Gurobi 7.5.2 (mac64, Python) logging started Sun May 20 23:59:13 2018


Gurobi 7.5.2 (mac64, Python) logging started Mon May 21 00:02:40 2018


Gurobi 7.5.2 (mac64, Python) logging started Mon May 21 00:05:00 2018


Gurobi 7.5.2 (mac64, Python) logging started Mon May 21 00:05:38 2018


Gurobi 7.5.2 (mac64, Python) logging started Mon May 21 00:05:51 2018


Gurobi 7.5.2 (mac64, Python) logging started Mon May 21 00:06:20 2018


Gurobi 7.5.2 (mac64, Python) logging started Mon May 21 00:06:40 2018


Gurobi 7.5.2 (mac64, Python) logging started Mon May 21 00:08:08 2018


Gurobi 7.5.2 (mac64, Python) logging started Mon May 21 00:09:10 2018


Gurobi 7.5.2 (mac64, Python) logging started Mon May 21 00:13:02 2018


Gurobi 7.5.2 (mac64, Python) logging started Mon May 21 00:15:16 2018


Gurobi 7.5.2 (mac64, Python) logging started Mon May 21 00:15:54 2018


Gurobi 7.5.2 (mac64, Python) logging started Mon May 21 00:22:21 2018


Gurobi 7.5.2 (mac64, Python) logging started Mon May 21 00:26:10 2018


Gurobi 7.5.2 (mac64, Python) logging started Mon May 21 00:28:04 2018


Gurobi 7.5.2 (mac64, Python) logging started Mon May 21 00:28:32 2018


Gurobi 7.5.2 (mac64, Python) logging started Mon May 21 00:29:39 2018


Gurobi 7.5.2 (mac64, Python) logging started Mon May 21 00:30:40 2018


Gurobi 7.5.2 (mac64, Python) logging started Mon May 21 00:34:15 2018


Gurobi 7.5.2 (mac64, Python) logging started Mon May 21 00:34:27 2018


Gurobi 7.5.2 (mac64, Python) logging started Mon May 21 00:34:31 2018


Gurobi 7.5.2 (mac64, Python) logging started Mon May 21 00:34:53 2018


Gurobi 7.5.2 (mac64, Python) logging started Mon May 21 00:36:25 2018


Gurobi 7.5.2 (mac64, Python) logging started Mon May 21 00:37:44 2018


Gurobi 7.5.2 (mac64, Python) logging started Mon May 21 00:38:07 2018


Gurobi 7.5.2 (mac64, Python) logging started Mon May 21 09:46:39 2018


Gurobi 7.5.2 (mac64, Python) logging started Mon May 21 09:49:53 2018


Gurobi 7.5.2 (mac64, Python) logging started Mon May 21 09:51:04 2018


Gurobi 7.5.2 (mac64, Python) logging started Mon May 21 09:56:11 2018


Gurobi 7.5.2 (mac64, Python) logging started Mon May 21 09:58:03 2018


Gurobi 7.5.2 (mac64, Python) logging started Mon May 21 10:00:07 2018


Gurobi 7.5.2 (mac64, Python) logging started Mon May 21 10:01:46 2018


Gurobi 7.5.2 (mac64, Python) logging started Mon May 21 10:03:29 2018


Gurobi 7.5.2 (mac64, Python) logging started Mon May 21 10:05:12 2018


Gurobi 7.5.2 (mac64, Python) logging started Mon May 21 10:05:55 2018


Gurobi 7.5.2 (mac64, Python) logging started Mon May 21 10:07:11 2018


Gurobi 7.5.2 (mac64, Python) logging started Mon May 21 10:10:20 2018


Gurobi 7.5.2 (mac64, Python) logging started Mon May 21 10:11:10 2018


Gurobi 7.5.2 (mac64, Python) logging started Mon May 21 10:12:16 2018


Gurobi 7.5.2 (mac64, Python) logging started Mon May 21 10:13:46 2018


Gurobi 7.5.2 (mac64, Python) logging started Mon May 21 10:14:17 2018


Gurobi 7.5.2 (mac64, Python) logging started Mon May 21 10:15:00 2018


Gurobi 7.5.2 (mac64, Python) logging started Mon May 21 10:16:01 2018


Gurobi 7.5.2 (mac64, Python) logging started Mon May 21 10:48:57 2018


Gurobi 7.5.2 (mac64, Python) logging started Mon May 21 10:54:38 2018


Gurobi 7.5.2 (mac64, Python) logging started Mon May 21 14:45:32 2018


Gurobi 7.5.2 (mac64, Python) logging started Mon May 21 14:46:52 2018


Gurobi 7.5.2 (mac64, Python) logging started Mon May 21 14:48:45 2018


Gurobi 7.5.2 (mac64, Python) logging started Mon May 21 14:49:37 2018


Gurobi 7.5.2 (mac64, Python) logging started Mon May 21 14:51:21 2018


Gurobi 7.5.2 (mac64, Python) logging started Mon May 21 14:53:22 2018


Gurobi 7.5.2 (mac64, Python) logging started Mon May 21 14:54:50 2018


Gurobi 7.5.2 (mac64, Python) logging started Mon May 21 15:25:16 2018


Gurobi 7.5.2 (mac64, Python) logging started Mon May 21 15:25:48 2018


Gurobi 7.5.2 (mac64, Python) logging started Mon May 21 15:29:10 2018


Gurobi 7.5.2 (mac64, Python) logging started Mon May 21 15:29:54 2018


Gurobi 7.5.2 (mac64, Python) logging started Mon May 21 15:32:42 2018


Gurobi 7.5.2 (mac64, Python) logging started Mon May 21 15:38:46 2018


Gurobi 7.5.2 (mac64, Python) logging started Mon May 21 15:41:12 2018


Gurobi 7.5.2 (mac64, Python) logging started Mon May 21 15:41:52 2018


Gurobi 7.5.2 (mac64, Python) logging started Mon May 21 15:42:20 2018


Gurobi 7.5.2 (mac64, Python) logging started Mon May 21 16:06:22 2018


Gurobi 7.5.2 (mac64, Python) logging started Mon May 21 16:08:17 2018


Gurobi 7.5.2 (mac64, Python) logging started Mon May 21 16:12:57 2018


Gurobi 7.5.2 (mac64, Python) logging started Mon May 21 16:14:17 2018


Gurobi 7.5.2 (mac64, Python) logging started Mon May 21 16:16:40 2018


Gurobi 7.5.2 (mac64, Python) logging started Sat May 26 13:48:58 2018

